22
110
31
26
0
61
101
42
0
86
100
238
59
0
46
50
48
64
0
84
153
36
34
45
0
175
45
181
37
49
57
78
222
68
119
0
0
67
0
39
69
51
54
107
147
0
70
52
70
0
27
0
55
39
55
57
87
76
81
0
77
286
75
153
48
37
43
37
59
34
38
42
89
28
27
54
69
86
64
105
0
49
70
91
133
62
28
129
334
54
59
131
96
55
34
46
138
70
0
38
